42
75
60	4
59	2
58	2
57	4
56	1
55	1
54	1
53	2
52	2
51	3
50	2
49	1
48	1
47	3
46	1
45	4
44	1
43	4
42	2
40	1
39	2
38	1
36	1
35	7
34	4
33	3
32	2
31	3
30	2
29	1
28	4
27	5
26	2
25	2
24	3
23	4
22	1
20	2
19	3
18	2
16	3
15	1
